p cnf 10 50
-4 -6 9 0
9 -2 -10 0
-4 -6 10 0
-8 -3 10 0
-9 -1 7 0
8 6 7 0
2 5 -3 0
-3 2 4 0
3 -9 7 0
-5 -2 1 0
-9 4 -5 0
9 -4 3 0
-10 5 -7 0
-4 -1 9 0
-5 -7 -3 0
7 -4 -5 0
3 5 7 0
-5 4 -6 0
-6 -8 -10 0
-9 -8 -3 0
10 -3 -9 0
7 10 6 0
-1 -6 5 0
7 -6 -10 0
-1 9 8 0
-8 4 -2 0
1 4 -5 0
-1 -5 -6 0
-1 -7 8 0
-10 -9 3 0
7 3 -5 0
-9 8 -4 0
-10 6 -7 0
-2 -4 -6 0
2 -1 7 0
-3 9 6 0
4 -9 2 0
5 6 3 0
-3 10 -8 0
-10 -5 6 0
2 -5 -9 0
5 -3 6 0
6 -2 -10 0
6 -4 -1 0
10 -7 -6 0
-7 8 10 0
6 3 4 0
-4 -6 9 0
7 3 4 0
-10 7 6 0
